
Gurobi 11.0.3 (linux64) logging started Fri Nov 22 05:26:31 2024

Set parameter LogFile to value "/home/yihong/Coding/OR_SUC/SUC_results_bigM100000_thread4/case24_ieee_rts_theta0.1_epsilon0.05_gurobi_seed630000_num_gen100_N_WDR100_load_scaling_factor1_exact_T12quadra_cost.txt"
Set parameter TimeLimit to value 3600
Gurobi Optimizer version 11.0.3 build v11.0.3rc0 (linux64 - "Ubuntu 20.04.6 LTS")

CPU model: AMD EPYC 7532 32-Core Processor, instruction set [SSE2|AVX|AVX2]
Thread count: 64 physical cores, 128 logical processors, using up to 4 threads

Optimize a model with 28631 rows, 15081 columns and 662130 nonzeros
Model fingerprint: 0x52133574
Model has 1200 quadratic constraints
Variable types: 13781 continuous, 1300 integer (1300 binary)
Coefficient statistics:
  Matrix range     [3e-04, 1e+05]
  QMatrix range    [2e-03, 8e-03]
  QLMatrix range   [3e-01, 6e+01]
  Objective range  [1e+00, 1e+00]
  Bounds range     [1e+00, 1e+00]
  RHS range        [1e+00, 1e+05]
Presolve removed 23418 rows and 6458 columns
Presolve time: 0.21s
Presolved: 5213 rows, 8623 columns, 29756 nonzeros
Presolved model has 1200 quadratic constraint(s)
Variable types: 7349 continuous, 1274 integer (1274 binary)

Root relaxation: objective 1.444119e+04, 4013 iterations, 0.08 seconds (0.11 work units)

    Nodes    |    Current Node    |     Objective Bounds      |     Work
 Expl Unexpl |  Obj  Depth IntInf | Incumbent    BestBd   Gap | It/Node Time

     0     0 14441.1876    0   23          - 14441.1876      -     -    0s
     0     0 220958.170    0  305          - 220958.170      -     -    0s
     0     0 221392.985    0  306          - 221392.985      -     -    0s
     0     0 355133.479    0  179          - 355133.479      -     -    0s
     0     0 355171.530    0  179          - 355171.530      -     -    0s
     0     0 355390.573    0  143          - 355390.573      -     -    0s
     0     0 355416.328    0  151          - 355416.328      -     -    0s
     0     0 355555.411    0  141          - 355555.411      -     -    0s
     0     0 355594.269    0  141          - 355594.269      -     -    0s
     0     2 355594.269    0  141          - 355594.269      -     -    1s
H  215   235                    356984.91303 356053.413  0.26%   8.3    1s
*  215   235              60    356984.91303 356053.413  0.26%   8.3    1s
H  383   283                    356425.69353 356385.546  0.01%  10.5    2s
*  383   283              64    356425.69353 356385.546  0.01%  10.5    2s

Cutting planes:
  Gomory: 51
  Implied bound: 322
  MIR: 120
  Flow cover: 118
  RLT: 3
  Relax-and-lift: 1

Explored 433 nodes (15091 simplex iterations) in 2.47 seconds (2.91 work units)
Thread count was 4 (of 128 available processors)

Solution count 3: 356426 356426 356985 

Optimal solution found (tolerance 1.00e-03)
Warning: max constraint violation (2.9986e-07) exceeds tolerance
Best objective 3.564256935328e+05, best bound 3.563855455928e+05, gap 0.0113%
